c Sudoku solution
p cnf 729 0
147 0
156 0
169 0
299 0
327 0
364 0
475 0
483 0
498 0
543 0
554 0
565 0
611 0
687 0
277 0
718 0
731 0
766 0
792 0
757 0
467 0
839 0
319 0
844 0
853 0
263 0
888 0
924 0
933 0
725 0
773 0
784 0
749 0
895 0
997 0
817 0
113 0
215 0
414 0
537 0
528 0
623 0
635 0
429 0
659 0
393 0
234 0
185 0
591 0
194 0
674 0
696 0
516 0
432 0
451 0
446 0
912 0
826 0
862 0
871 0
336 0
138 0
378 0
286 0
961 0
668 0
642 0
172 0
381 0
121 0
222 0
241 0
345 0
352 0
258 0
948 0
955 0
579 0
582 0
976 0
989 0
